f:0
solution:
7 53 69 27 46 42 19 14 5 51 55 3 30 25 16 20 86 13 23 21 52 89 91 70 95 4 50 40 0 39 41 56 57 18 35 38 64 49 22 24 8 9 84 99 80 76 94 66 29 28 31 78 36 1 93 45 48 32 54 44 15 12 60 47 82 73 71 33 43 72 61 34 85 68 88 17 74 6 62 90 83 2 98 97 26 92 79 58 75 87 81 63 10 65 67 37 11 96 77 59 
